n = 10;
friends = array2d(1..10, 1..3, [
    2, 3, 4,  % Friends of student 1
    1, 3, 5,  % Friends of student 2
    1, 2, 6,  % Friends of student 3
    1, 5, 6,  % Friends of student 4
    2, 4, 7,  % Friends of student 5
    3, 4, 8,  % Friends of student 6
    5, 8, 9,  % Friends of student 7
    6, 7, 10, % Friends of student 8
    7, 10, 1, % Friends of student 9
    8, 9, 2   % Friends of student 10
]);